language ESSENCE' 1.0
$ Minion SolverNodes: 316750
$ Minion SolverTotalTime: 222.511
$ Minion SolverTimeOut: 0
$ Savile Row TotalTime: 74.794
letting numberOfTurningPoints be 22
letting states be [[[1, 0, 0, 0, 0, 1, 0, 0], 
[0, 0, 0, 1, 0, 0, 0, 0], 
[0, 1, 0, 0, 1, 0, 0, 0], 
[0, 0, 1, 0, 1, 0, 0, 0], 
[1, 0, 1, 0, 1, 0, 0, 0], 
[1, 0, 0, 0, 0, 0, 0, 0], 
[0, 0, 1, 1, 0, 0, 0, 0], 
[0, 0, 0, 0, 0, 0, 0, 0]], 
[[1, 0, 0, 0, 0, 1, 0, 0], 
[0, 0, 0, 1, 0, 0, 0, 0], 
[0, 1, 0, 0, 1, 0, 0, 0], 
[0, 0, 1, 0, 1, 0, 0, 0], 
[1, 0, 1, 0, 1, 0, 0, 0], 
[1, 0, 0, 0, 0, 0, 0, 0], 
[1, 1, 1, 1, 0, 0, 0, 0], 
[0, 0, 0, 0, 0, 0, 0, 0]], 
[[1, 0, 0, 0, 0, 1, 0, 0], 
[0, 0, 0, 1, 0, 0, 0, 0], 
[0, 1, 0, 0, 1, 0, 0, 0], 
[0, 0, 1, 0, 1, 0, 0, 0], 
[1, 0, 1, 0, 1, 0, 0, 0], 
[1, 0, 0, 0, 0, 0, 0, 0], 
[1, 1, 1, 1, 0, 0, 0, 0], 
[1, 0, 0, 0, 0, 0, 0, 0]], 
[[1, 0, 0, 0, 0, 1, 0, 0], 
[0, 0, 0, 1, 0, 0, 0, 0], 
[0, 1, 0, 0, 1, 0, 0, 0], 
[0, 0, 1, 0, 1, 0, 0, 0], 
[1, 0, 1, 0, 1, 0, 0, 0], 
[1, 0, 0, 0, 0, 0, 0, 0], 
[1, 1, 1, 1, 0, 0, 0, 0], 
[1, 1, 1, 1, 1, 1, 1, 1]], 
[[1, 0, 0, 0, 0, 1, 0, 1], 
[0, 0, 0, 1, 0, 0, 0, 1], 
[0, 1, 0, 0, 1, 0, 0, 1], 
[0, 0, 1, 0, 1, 0, 0, 1], 
[1, 0, 1, 0, 1, 0, 0, 1], 
[1, 0, 0, 0, 0, 0, 0, 1], 
[1, 1, 1, 1, 0, 0, 0, 1], 
[1, 1, 1, 1, 1, 1, 1, 1]], 
[[1, 0, 0, 0, 0, 1, 1, 1], 
[0, 0, 0, 1, 0, 0, 0, 1], 
[0, 1, 0, 0, 1, 0, 0, 1], 
[0, 0, 1, 0, 1, 0, 0, 1], 
[1, 0, 1, 0, 1, 0, 0, 1], 
[1, 0, 0, 0, 0, 0, 0, 1], 
[1, 1, 1, 1, 0, 0, 0, 1], 
[1, 1, 1, 1, 1, 1, 1, 1]], 
[[1, 0, 0, 0, 0, 1, 1, 1], 
[0, 0, 0, 1, 0, 0, 1, 1], 
[0, 1, 0, 0, 1, 0, 1, 1], 
[0, 0, 1, 0, 1, 0, 1, 1], 
[1, 0, 1, 0, 1, 0, 1, 1], 
[1, 0, 0, 0, 0, 0, 1, 1], 
[1, 1, 1, 1, 0, 0, 1, 1], 
[1, 1, 1, 1, 1, 1, 1, 1]], 
[[1, 0, 0, 0, 0, 1, 1, 1], 
[0, 0, 0, 1, 0, 0, 1, 1], 
[0, 1, 0, 0, 1, 0, 1, 1], 
[0, 0, 1, 0, 1, 0, 1, 1], 
[1, 0, 1, 0, 1, 0, 1, 1], 
[1, 0, 0, 0, 0, 0, 1, 1], 
[1, 1, 1, 1, 1, 1, 1, 1], 
[1, 1, 1, 1, 1, 1, 1, 1]], 
[[1, 0, 0, 0, 0, 1, 1, 1], 
[0, 0, 0, 1, 0, 0, 1, 1], 
[0, 1, 0, 0, 1, 0, 1, 1], 
[0, 0, 1, 0, 1, 0, 1, 1], 
[1, 0, 1, 0, 1, 0, 1, 1], 
[1, 0, 0, 0, 1, 0, 1, 1], 
[1, 1, 1, 1, 1, 1, 1, 1], 
[1, 1, 1, 1, 1, 1, 1, 1]], 
[[1, 0, 0, 0, 0, 1, 1, 1], 
[0, 0, 0, 1, 0, 0, 1, 1], 
[0, 1, 0, 0, 1, 0, 1, 1], 
[0, 0, 1, 0, 1, 0, 1, 1], 
[1, 0, 1, 0, 1, 0, 1, 1], 
[1, 0, 0, 0, 1, 1, 1, 1], 
[1, 1, 1, 1, 1, 1, 1, 1], 
[1, 1, 1, 1, 1, 1, 1, 1]], 
[[1, 0, 0, 0, 0, 1, 1, 1], 
[0, 0, 0, 1, 0, 1, 1, 1], 
[0, 1, 0, 0, 1, 1, 1, 1], 
[0, 0, 1, 0, 1, 1, 1, 1], 
[1, 0, 1, 0, 1, 1, 1, 1], 
[1, 0, 0, 0, 1, 1, 1, 1], 
[1, 1, 1, 1, 1, 1, 1, 1], 
[1, 1, 1, 1, 1, 1, 1, 1]], 
[[1, 0, 0, 0, 0, 1, 1, 1], 
[0, 0, 0, 1, 1, 1, 1, 1], 
[0, 1, 0, 0, 1, 1, 1, 1], 
[0, 0, 1, 0, 1, 1, 1, 1], 
[1, 0, 1, 0, 1, 1, 1, 1], 
[1, 0, 0, 0, 1, 1, 1, 1], 
[1, 1, 1, 1, 1, 1, 1, 1], 
[1, 1, 1, 1, 1, 1, 1, 1]], 
[[1, 0, 0, 0, 1, 1, 1, 1], 
[0, 0, 0, 1, 1, 1, 1, 1], 
[0, 1, 0, 0, 1, 1, 1, 1], 
[0, 0, 1, 0, 1, 1, 1, 1], 
[1, 0, 1, 0, 1, 1, 1, 1], 
[1, 0, 0, 0, 1, 1, 1, 1], 
[1, 1, 1, 1, 1, 1, 1, 1], 
[1, 1, 1, 1, 1, 1, 1, 1]], 
[[1, 1, 1, 1, 1, 1, 1, 1], 
[0, 0, 0, 1, 1, 1, 1, 1], 
[0, 1, 0, 0, 1, 1, 1, 1], 
[0, 0, 1, 0, 1, 1, 1, 1], 
[1, 0, 1, 0, 1, 1, 1, 1], 
[1, 0, 0, 0, 1, 1, 1, 1], 
[1, 1, 1, 1, 1, 1, 1, 1], 
[1, 1, 1, 1, 1, 1, 1, 1]], 
[[1, 1, 1, 1, 1, 1, 1, 1], 
[0, 1, 0, 1, 1, 1, 1, 1], 
[0, 1, 0, 0, 1, 1, 1, 1], 
[0, 0, 1, 0, 1, 1, 1, 1], 
[1, 0, 1, 0, 1, 1, 1, 1], 
[1, 0, 0, 0, 1, 1, 1, 1], 
[1, 1, 1, 1, 1, 1, 1, 1], 
[1, 1, 1, 1, 1, 1, 1, 1]], 
[[1, 1, 1, 1, 1, 1, 1, 1], 
[1, 1, 0, 1, 1, 1, 1, 1], 
[0, 1, 0, 0, 1, 1, 1, 1], 
[0, 0, 1, 0, 1, 1, 1, 1], 
[1, 0, 1, 0, 1, 1, 1, 1], 
[1, 0, 0, 0, 1, 1, 1, 1], 
[1, 1, 1, 1, 1, 1, 1, 1], 
[1, 1, 1, 1, 1, 1, 1, 1]], 
[[1, 1, 1, 1, 1, 1, 1, 1], 
[1, 1, 0, 1, 1, 1, 1, 1], 
[1, 1, 0, 0, 1, 1, 1, 1], 
[1, 0, 1, 0, 1, 1, 1, 1], 
[1, 0, 1, 0, 1, 1, 1, 1], 
[1, 0, 0, 0, 1, 1, 1, 1], 
[1, 1, 1, 1, 1, 1, 1, 1], 
[1, 1, 1, 1, 1, 1, 1, 1]], 
[[1, 1, 1, 1, 1, 1, 1, 1], 
[1, 1, 0, 1, 1, 1, 1, 1], 
[1, 1, 0, 0, 1, 1, 1, 1], 
[1, 1, 1, 0, 1, 1, 1, 1], 
[1, 0, 1, 0, 1, 1, 1, 1], 
[1, 0, 0, 0, 1, 1, 1, 1], 
[1, 1, 1, 1, 1, 1, 1, 1], 
[1, 1, 1, 1, 1, 1, 1, 1]], 
[[1, 1, 1, 1, 1, 1, 1, 1], 
[1, 1, 0, 1, 1, 1, 1, 1], 
[1, 1, 0, 0, 1, 1, 1, 1], 
[1, 1, 1, 0, 1, 1, 1, 1], 
[1, 1, 1, 0, 1, 1, 1, 1], 
[1, 1, 0, 0, 1, 1, 1, 1], 
[1, 1, 1, 1, 1, 1, 1, 1], 
[1, 1, 1, 1, 1, 1, 1, 1]], 
[[1, 1, 1, 1, 1, 1, 1, 1], 
[1, 1, 0, 1, 1, 1, 1, 1], 
[1, 1, 0, 0, 1, 1, 1, 1], 
[1, 1, 1, 0, 1, 1, 1, 1], 
[1, 1, 1, 0, 1, 1, 1, 1], 
[1, 1, 1, 1, 1, 1, 1, 1], 
[1, 1, 1, 1, 1, 1, 1, 1], 
[1, 1, 1, 1, 1, 1, 1, 1]], 
[[1, 1, 1, 1, 1, 1, 1, 1], 
[1, 1, 0, 1, 1, 1, 1, 1], 
[1, 1, 0, 1, 1, 1, 1, 1], 
[1, 1, 1, 1, 1, 1, 1, 1], 
[1, 1, 1, 1, 1, 1, 1, 1], 
[1, 1, 1, 1, 1, 1, 1, 1], 
[1, 1, 1, 1, 1, 1, 1, 1], 
[1, 1, 1, 1, 1, 1, 1, 1]], 
[[1, 1, 1, 1, 1, 1, 1, 1], 
[1, 1, 0, 1, 1, 1, 1, 1], 
[1, 1, 1, 1, 1, 1, 1, 1], 
[1, 1, 1, 1, 1, 1, 1, 1], 
[1, 1, 1, 1, 1, 1, 1, 1], 
[1, 1, 1, 1, 1, 1, 1, 1], 
[1, 1, 1, 1, 1, 1, 1, 1], 
[1, 1, 1, 1, 1, 1, 1, 1]], 
[[1, 1, 1, 1, 1, 1, 1, 1], 
[1, 1, 1, 1, 1, 1, 1, 1], 
[1, 1, 1, 1, 1, 1, 1, 1], 
[1, 1, 1, 1, 1, 1, 1, 1], 
[1, 1, 1, 1, 1, 1, 1, 1], 
[1, 1, 1, 1, 1, 1, 1, 1], 
[1, 1, 1, 1, 1, 1, 1, 1], 
[1, 1, 1, 1, 1, 1, 1, 1]], 
[[1, 1, 1, 1, 1, 1, 1, 1], 
[1, 1, 1, 1, 1, 1, 1, 1], 
[1, 1, 1, 1, 1, 1, 1, 1], 
[1, 1, 1, 1, 1, 1, 1, 1], 
[1, 1, 1, 1, 1, 1, 1, 1], 
[1, 1, 1, 1, 1, 1, 1, 1], 
[1, 1, 1, 1, 1, 1, 1, 1], 
[1, 1, 1, 1, 1, 1, 1, 1]], 
[[1, 1, 1, 1, 1, 1, 1, 1], 
[1, 1, 1, 1, 1, 1, 1, 1], 
[1, 1, 1, 1, 1, 1, 1, 1], 
[1, 1, 1, 1, 1, 1, 1, 1], 
[1, 1, 1, 1, 1, 1, 1, 1], 
[1, 1, 1, 1, 1, 1, 1, 1], 
[1, 1, 1, 1, 1, 1, 1, 1], 
[1, 1, 1, 1, 1, 1, 1, 1]], 
[[1, 1, 1, 1, 1, 1, 1, 1], 
[1, 1, 1, 1, 1, 1, 1, 1], 
[1, 1, 1, 1, 1, 1, 1, 1], 
[1, 1, 1, 1, 1, 1, 1, 1], 
[1, 1, 1, 1, 1, 1, 1, 1], 
[1, 1, 1, 1, 1, 1, 1, 1], 
[1, 1, 1, 1, 1, 1, 1, 1], 
[1, 1, 1, 1, 1, 1, 1, 1]], 
[[1, 1, 1, 1, 1, 1, 1, 1], 
[1, 1, 1, 1, 1, 1, 1, 1], 
[1, 1, 1, 1, 1, 1, 1, 1], 
[1, 1, 1, 1, 1, 1, 1, 1], 
[1, 1, 1, 1, 1, 1, 1, 1], 
[1, 1, 1, 1, 1, 1, 1, 1], 
[1, 1, 1, 1, 1, 1, 1, 1], 
[1, 1, 1, 1, 1, 1, 1, 1]], 
[[1, 1, 1, 1, 1, 1, 1, 1], 
[1, 1, 1, 1, 1, 1, 1, 1], 
[1, 1, 1, 1, 1, 1, 1, 1], 
[1, 1, 1, 1, 1, 1, 1, 1], 
[1, 1, 1, 1, 1, 1, 1, 1], 
[1, 1, 1, 1, 1, 1, 1, 1], 
[1, 1, 1, 1, 1, 1, 1, 1], 
[1, 1, 1, 1, 1, 1, 1, 1]], 
[[1, 1, 1, 1, 1, 1, 1, 1], 
[1, 1, 1, 1, 1, 1, 1, 1], 
[1, 1, 1, 1, 1, 1, 1, 1], 
[1, 1, 1, 1, 1, 1, 1, 1], 
[1, 1, 1, 1, 1, 1, 1, 1], 
[1, 1, 1, 1, 1, 1, 1, 1], 
[1, 1, 1, 1, 1, 1, 1, 1], 
[1, 1, 1, 1, 1, 1, 1, 1]], 
[[1, 1, 1, 1, 1, 1, 1, 1], 
[1, 1, 1, 1, 1, 1, 1, 1], 
[1, 1, 1, 1, 1, 1, 1, 1], 
[1, 1, 1, 1, 1, 1, 1, 1], 
[1, 1, 1, 1, 1, 1, 1, 1], 
[1, 1, 1, 1, 1, 1, 1, 1], 
[1, 1, 1, 1, 1, 1, 1, 1], 
[1, 1, 1, 1, 1, 1, 1, 1]], 
[[1, 1, 1, 1, 1, 1, 1, 1], 
[1, 1, 1, 1, 1, 1, 1, 1], 
[1, 1, 1, 1, 1, 1, 1, 1], 
[1, 1, 1, 1, 1, 1, 1, 1], 
[1, 1, 1, 1, 1, 1, 1, 1], 
[1, 1, 1, 1, 1, 1, 1, 1], 
[1, 1, 1, 1, 1, 1, 1, 1], 
[1, 1, 1, 1, 1, 1, 1, 1]], 
[[1, 1, 1, 1, 1, 1, 1, 1], 
[1, 1, 1, 1, 1, 1, 1, 1], 
[1, 1, 1, 1, 1, 1, 1, 1], 
[1, 1, 1, 1, 1, 1, 1, 1], 
[1, 1, 1, 1, 1, 1, 1, 1], 
[1, 1, 1, 1, 1, 1, 1, 1], 
[1, 1, 1, 1, 1, 1, 1, 1], 
[1, 1, 1, 1, 1, 1, 1, 1]], 
[[1, 1, 1, 1, 1, 1, 1, 1], 
[1, 1, 1, 1, 1, 1, 1, 1], 
[1, 1, 1, 1, 1, 1, 1, 1], 
[1, 1, 1, 1, 1, 1, 1, 1], 
[1, 1, 1, 1, 1, 1, 1, 1], 
[1, 1, 1, 1, 1, 1, 1, 1], 
[1, 1, 1, 1, 1, 1, 1, 1], 
[1, 1, 1, 1, 1, 1, 1, 1]], 
[[1, 1, 1, 1, 1, 1, 1, 1], 
[1, 1, 1, 1, 1, 1, 1, 1], 
[1, 1, 1, 1, 1, 1, 1, 1], 
[1, 1, 1, 1, 1, 1, 1, 1], 
[1, 1, 1, 1, 1, 1, 1, 1], 
[1, 1, 1, 1, 1, 1, 1, 1], 
[1, 1, 1, 1, 1, 1, 1, 1], 
[1, 1, 1, 1, 1, 1, 1, 1]], 
[[1, 1, 1, 1, 1, 1, 1, 1], 
[1, 1, 1, 1, 1, 1, 1, 1], 
[1, 1, 1, 1, 1, 1, 1, 1], 
[1, 1, 1, 1, 1, 1, 1, 1], 
[1, 1, 1, 1, 1, 1, 1, 1], 
[1, 1, 1, 1, 1, 1, 1, 1], 
[1, 1, 1, 1, 1, 1, 1, 1], 
[1, 1, 1, 1, 1, 1, 1, 1]], 
[[1, 1, 1, 1, 1, 1, 1, 1], 
[1, 1, 1, 1, 1, 1, 1, 1], 
[1, 1, 1, 1, 1, 1, 1, 1], 
[1, 1, 1, 1, 1, 1, 1, 1], 
[1, 1, 1, 1, 1, 1, 1, 1], 
[1, 1, 1, 1, 1, 1, 1, 1], 
[1, 1, 1, 1, 1, 1, 1, 1], 
[1, 1, 1, 1, 1, 1, 1, 1]], 
[[1, 1, 1, 1, 1, 1, 1, 1], 
[1, 1, 1, 1, 1, 1, 1, 1], 
[1, 1, 1, 1, 1, 1, 1, 1], 
[1, 1, 1, 1, 1, 1, 1, 1], 
[1, 1, 1, 1, 1, 1, 1, 1], 
[1, 1, 1, 1, 1, 1, 1, 1], 
[1, 1, 1, 1, 1, 1, 1, 1], 
[1, 1, 1, 1, 1, 1, 1, 1]], 
[[1, 1, 1, 1, 1, 1, 1, 1], 
[1, 1, 1, 1, 1, 1, 1, 1], 
[1, 1, 1, 1, 1, 1, 1, 1], 
[1, 1, 1, 1, 1, 1, 1, 1], 
[1, 1, 1, 1, 1, 1, 1, 1], 
[1, 1, 1, 1, 1, 1, 1, 1], 
[1, 1, 1, 1, 1, 1, 1, 1], 
[1, 1, 1, 1, 1, 1, 1, 1]], 
[[1, 1, 1, 1, 1, 1, 1, 1], 
[1, 1, 1, 1, 1, 1, 1, 1], 
[1, 1, 1, 1, 1, 1, 1, 1], 
[1, 1, 1, 1, 1, 1, 1, 1], 
[1, 1, 1, 1, 1, 1, 1, 1], 
[1, 1, 1, 1, 1, 1, 1, 1], 
[1, 1, 1, 1, 1, 1, 1, 1], 
[1, 1, 1, 1, 1, 1, 1, 1]], 
[[1, 1, 1, 1, 1, 1, 1, 1], 
[1, 1, 1, 1, 1, 1, 1, 1], 
[1, 1, 1, 1, 1, 1, 1, 1], 
[1, 1, 1, 1, 1, 1, 1, 1], 
[1, 1, 1, 1, 1, 1, 1, 1], 
[1, 1, 1, 1, 1, 1, 1, 1], 
[1, 1, 1, 1, 1, 1, 1, 1], 
[1, 1, 1, 1, 1, 1, 1, 1]], 
[[1, 1, 1, 1, 1, 1, 1, 1], 
[1, 1, 1, 1, 1, 1, 1, 1], 
[1, 1, 1, 1, 1, 1, 1, 1], 
[1, 1, 1, 1, 1, 1, 1, 1], 
[1, 1, 1, 1, 1, 1, 1, 1], 
[1, 1, 1, 1, 1, 1, 1, 1], 
[1, 1, 1, 1, 1, 1, 1, 1], 
[1, 1, 1, 1, 1, 1, 1, 1]], 
[[1, 1, 1, 1, 1, 1, 1, 1], 
[1, 1, 1, 1, 1, 1, 1, 1], 
[1, 1, 1, 1, 1, 1, 1, 1], 
[1, 1, 1, 1, 1, 1, 1, 1], 
[1, 1, 1, 1, 1, 1, 1, 1], 
[1, 1, 1, 1, 1, 1, 1, 1], 
[1, 1, 1, 1, 1, 1, 1, 1], 
[1, 1, 1, 1, 1, 1, 1, 1]], 
[[1, 1, 1, 1, 1, 1, 1, 1], 
[1, 1, 1, 1, 1, 1, 1, 1], 
[1, 1, 1, 1, 1, 1, 1, 1], 
[1, 1, 1, 1, 1, 1, 1, 1], 
[1, 1, 1, 1, 1, 1, 1, 1], 
[1, 1, 1, 1, 1, 1, 1, 1], 
[1, 1, 1, 1, 1, 1, 1, 1], 
[1, 1, 1, 1, 1, 1, 1, 1]], 
[[1, 1, 1, 1, 1, 1, 1, 1], 
[1, 1, 1, 1, 1, 1, 1, 1], 
[1, 1, 1, 1, 1, 1, 1, 1], 
[1, 1, 1, 1, 1, 1, 1, 1], 
[1, 1, 1, 1, 1, 1, 1, 1], 
[1, 1, 1, 1, 1, 1, 1, 1], 
[1, 1, 1, 1, 1, 1, 1, 1], 
[1, 1, 1, 1, 1, 1, 1, 1]], 
[[1, 1, 1, 1, 1, 1, 1, 1], 
[1, 1, 1, 1, 1, 1, 1, 1], 
[1, 1, 1, 1, 1, 1, 1, 1], 
[1, 1, 1, 1, 1, 1, 1, 1], 
[1, 1, 1, 1, 1, 1, 1, 1], 
[1, 1, 1, 1, 1, 1, 1, 1], 
[1, 1, 1, 1, 1, 1, 1, 1], 
[1, 1, 1, 1, 1, 1, 1, 1]], 
[[1, 1, 1, 1, 1, 1, 1, 1], 
[1, 1, 1, 1, 1, 1, 1, 1], 
[1, 1, 1, 1, 1, 1, 1, 1], 
[1, 1, 1, 1, 1, 1, 1, 1], 
[1, 1, 1, 1, 1, 1, 1, 1], 
[1, 1, 1, 1, 1, 1, 1, 1], 
[1, 1, 1, 1, 1, 1, 1, 1], 
[1, 1, 1, 1, 1, 1, 1, 1]], 
[[1, 1, 1, 1, 1, 1, 1, 1], 
[1, 1, 1, 1, 1, 1, 1, 1], 
[1, 1, 1, 1, 1, 1, 1, 1], 
[1, 1, 1, 1, 1, 1, 1, 1], 
[1, 1, 1, 1, 1, 1, 1, 1], 
[1, 1, 1, 1, 1, 1, 1, 1], 
[1, 1, 1, 1, 1, 1, 1, 1], 
[1, 1, 1, 1, 1, 1, 1, 1]], 
[[1, 1, 1, 1, 1, 1, 1, 1], 
[1, 1, 1, 1, 1, 1, 1, 1], 
[1, 1, 1, 1, 1, 1, 1, 1], 
[1, 1, 1, 1, 1, 1, 1, 1], 
[1, 1, 1, 1, 1, 1, 1, 1], 
[1, 1, 1, 1, 1, 1, 1, 1], 
[1, 1, 1, 1, 1, 1, 1, 1], 
[1, 1, 1, 1, 1, 1, 1, 1]], 
[[1, 1, 1, 1, 1, 1, 1, 1], 
[1, 1, 1, 1, 1, 1, 1, 1], 
[1, 1, 1, 1, 1, 1, 1, 1], 
[1, 1, 1, 1, 1, 1, 1, 1], 
[1, 1, 1, 1, 1, 1, 1, 1], 
[1, 1, 1, 1, 1, 1, 1, 1], 
[1, 1, 1, 1, 1, 1, 1, 1], 
[1, 1, 1, 1, 1, 1, 1, 1]], 
[[1, 1, 1, 1, 1, 1, 1, 1], 
[1, 1, 1, 1, 1, 1, 1, 1], 
[1, 1, 1, 1, 1, 1, 1, 1], 
[1, 1, 1, 1, 1, 1, 1, 1], 
[1, 1, 1, 1, 1, 1, 1, 1], 
[1, 1, 1, 1, 1, 1, 1, 1], 
[1, 1, 1, 1, 1, 1, 1, 1], 
[1, 1, 1, 1, 1, 1, 1, 1]], 
[[1, 1, 1, 1, 1, 1, 1, 1], 
[1, 1, 1, 1, 1, 1, 1, 1], 
[1, 1, 1, 1, 1, 1, 1, 1], 
[1, 1, 1, 1, 1, 1, 1, 1], 
[1, 1, 1, 1, 1, 1, 1, 1], 
[1, 1, 1, 1, 1, 1, 1, 1], 
[1, 1, 1, 1, 1, 1, 1, 1], 
[1, 1, 1, 1, 1, 1, 1, 1]], 
[[1, 1, 1, 1, 1, 1, 1, 1], 
[1, 1, 1, 1, 1, 1, 1, 1], 
[1, 1, 1, 1, 1, 1, 1, 1], 
[1, 1, 1, 1, 1, 1, 1, 1], 
[1, 1, 1, 1, 1, 1, 1, 1], 
[1, 1, 1, 1, 1, 1, 1, 1], 
[1, 1, 1, 1, 1, 1, 1, 1], 
[1, 1, 1, 1, 1, 1, 1, 1]], 
[[1, 1, 1, 1, 1, 1, 1, 1], 
[1, 1, 1, 1, 1, 1, 1, 1], 
[1, 1, 1, 1, 1, 1, 1, 1], 
[1, 1, 1, 1, 1, 1, 1, 1], 
[1, 1, 1, 1, 1, 1, 1, 1], 
[1, 1, 1, 1, 1, 1, 1, 1], 
[1, 1, 1, 1, 1, 1, 1, 1], 
[1, 1, 1, 1, 1, 1, 1, 1]];int(0..52)]
letting turningPoints be [[7, 3], 
[7, 1], 
[8, 1], 
[8, 8], 
[1, 8], 
[1, 7], 
[7, 7], 
[7, 5], 
[6, 5], 
[6, 6], 
[2, 6], 
[2, 5], 
[1, 5], 
[1, 2], 
[2, 2], 
[2, 1], 
[4, 1], 
[4, 2], 
[6, 2], 
[6, 4], 
[3, 4], 
[3, 3], 
[2, 3], 
[0, 0], 
[0, 0], 
[0, 0], 
[0, 0], 
[0, 0], 
[0, 0], 
[0, 0], 
[0, 0], 
[0, 0], 
[0, 0], 
[0, 0], 
[0, 0], 
[0, 0], 
[0, 0], 
[0, 0], 
[0, 0], 
[0, 0], 
[0, 0], 
[0, 0], 
[0, 0], 
[0, 0], 
[0, 0], 
[0, 0], 
[0, 0], 
[0, 0], 
[0, 0], 
[0, 0], 
[0, 0], 
[0, 0], 
[0, 0];int(0..52)]
